ssat_solver_solve2
#level: 2
Abc_NtkNodeNum(s->pNtk): 1773  , BDD limit: 10240
level 1: 15 element
Exist
existence_eliminate_scope
Abc_NtkIsBddLogic(pNtk): 0
Abc_NtkIsStrash(pNtk): 1
existence_eliminate_scope_aig
exist by BDD failed
Abc_NtkNodeNum(s->pNtk): 981365  , BDD limit: 1177638
Build BDD success
level 0: 15 element
Random
c ssat solving in ABC
#var: 30
s SATISFIABLE
  > Upper bound = 9.915161e-01
  > Lower bound = 9.915161e-01
FINISHED CPU 34.46 MEM 0 MAXMEM 225116 STALE 0 MAXMEM_RSS 177840
<time name="ALL">34460</time>
real 47.53
user 37.16
sys 8.22
